(set-logic AUFNIRA)
;;; generated by SMT-LIB2 driver
;;; SMT-LIB2: integer arithmetic
(declare-sort uni 0)

(declare-sort ty 0)

(declare-fun sort (ty uni) Bool)

(declare-fun witness (ty) uni)

;; witness_sort
  (assert (forall ((a ty)) (sort a (witness a))))

(declare-fun int () ty)

(declare-fun infix_mngt (ty ty) ty)

(declare-fun set (ty) ty)

(declare-fun mem (ty uni uni) Bool)

(declare-fun infix_eqeq (ty uni uni) Bool)

;; infix ==_spec
  (assert
  (forall ((a ty))
  (forall ((s1 uni) (s2 uni))
  (and
  (=> (infix_eqeq a s1 s2) (forall ((x uni)) (= (mem a x s1) (mem a x s2))))
  (=> (forall ((x uni)) (=> (sort a x) (= (mem a x s1) (mem a x s2))))
  (infix_eqeq a s1 s2))))))

(declare-fun power (Int Int) Int)

;; Power_zero
  (assert (forall ((i Int)) (= (power i 0) 1)))

;; Power_plus_one
  (assert (forall ((x Int) (i Int)) (= (power i (+ x 1)) (* i (power i x)))))

(assert
;; h
  (not false))
(check-sat)
